unknown
(model
; cardinality of BoundSet is 4
(declare-sort BoundSet 0)
; rep: @uc_BoundSet_0
; rep: @uc_BoundSet_1
; rep: @uc_BoundSet_2
; rep: @uc_BoundSet_3
; cardinality of UnboundSet is 1
(declare-sort UnboundSet 0)
(declare-fun groundTerm_5 () UnboundSet)
(define-fun Thinks ((BOUND_VARIABLE_433 BoundSet)) Bool true)
(define-fun ShouldPutMoreMoneyIntoSchools ((BOUND_VARIABLE_444 BoundSet) (BOUND_VARIABLE_445 BoundSet) (BOUND_VARIABLE_446 BoundSet)) Bool true)
(define-fun Believes ((BOUND_VARIABLE_433 BoundSet)) Bool false)
(define-fun Wants ((BOUND_VARIABLE_475 BoundSet) (BOUND_VARIABLE_476 BoundSet) (BOUND_VARIABLE_477 BoundSet) (BOUND_VARIABLE_478 BoundSet) (BOUND_VARIABLE_479 BoundSet)) Bool false)
)
sat
(model
; cardinality of BoundSet is 1
(declare-sort BoundSet 0)
; rep: @uc_BoundSet_0
; cardinality of UnboundSet is 1
(declare-sort UnboundSet 0)
(declare-fun groundTerm_7 () UnboundSet)
(define-fun Thinks ((BOUND_VARIABLE_471 BoundSet)) Bool true)
(define-fun ShouldPutMoreMoneyIntoSchools ((BOUND_VARIABLE_482 BoundSet) (BOUND_VARIABLE_483 BoundSet) (BOUND_VARIABLE_484 BoundSet)) Bool true)
(define-fun Believes ((BOUND_VARIABLE_471 BoundSet)) Bool false)
(define-fun Wants ((BOUND_VARIABLE_510 BoundSet) (BOUND_VARIABLE_511 BoundSet) (BOUND_VARIABLE_512 BoundSet) (BOUND_VARIABLE_513 BoundSet) (BOUND_VARIABLE_514 BoundSet)) Bool false)
)
